NAME          DCAP_2_4_3_500_SS182
ROWS
 N  OBJ
 L  CON1
 L  CON2
 L  CON3
 L  CON4
 L  CON5
 L  CON6
 L  CON7
 L  CON8
 L  CON9
 L  CON10
 L  CON11
 L  CON12
 E  CON13
 E  CON14
 E  CON15
 E  CON16
 E  CON17
 E  CON18
 E  CON19
 E  CON20
 E  CON21
 E  CON22
 E  CON23
 E  CON24
COLUMNS
    x[1,1]    OBJ       6.180167      CON1      1.000000    
    x[1,1]    CON7      -1.000000     CON8      -1.000000   
    x[1,1]    CON9      -1.000000   
    x[1,2]    OBJ       6.563535      CON2      1.000000    
    x[1,2]    CON8      -1.000000     CON9      -1.000000   
    x[1,3]    OBJ       7.443064      CON3      1.000000    
    x[1,3]    CON9      -1.000000   
    x[2,1]    OBJ       6.732585      CON4      1.000000    
    x[2,1]    CON10     -1.000000     CON11     -1.000000   
    x[2,1]    CON12     -1.000000   
    x[2,2]    OBJ       5.039546      CON5      1.000000    
    x[2,2]    CON11     -1.000000     CON12     -1.000000   
    x[2,3]    OBJ       6.054841      CON6      1.000000    
    x[2,3]    CON12     -1.000000   
    MARKER    'MARKER'                'INTORG'
    u[1,1]    OBJ       48.076654     CON1      -1.000000   
    u[1,2]    OBJ       20.066487     CON2      -1.000000   
    u[1,3]    OBJ       32.230043     CON3      -1.000000   
    u[2,1]    OBJ       49.996186     CON4      -1.000000   
    u[2,2]    OBJ       49.466655     CON5      -1.000000   
    u[2,3]    OBJ       27.484319     CON6      -1.000000   
    y[1,1,1]  OBJ       6.398868      CON7      1.446837    
    y[1,1,1]  CON13     1.000000    
    y[1,1,2]  OBJ       9.638213      CON8      0.596001    
    y[1,1,2]  CON14     1.000000    
    y[1,1,3]  OBJ       7.858002      CON9      0.636999    
    y[1,1,3]  CON15     1.000000    
    y[1,2,1]  OBJ       9.671191      CON7      1.266289    
    y[1,2,1]  CON16     1.000000    
    y[1,2,2]  OBJ       8.653544      CON8      0.939959    
    y[1,2,2]  CON17     1.000000    
    y[1,2,3]  OBJ       9.743620      CON9      1.189280    
    y[1,2,3]  CON18     1.000000    
    y[1,3,1]  OBJ       5.828087      CON7      1.095486    
    y[1,3,1]  CON19     1.000000    
    y[1,3,2]  OBJ       5.155312      CON8      0.882047    
    y[1,3,2]  CON20     1.000000    
    y[1,3,3]  OBJ       9.712259      CON9      0.700650    
    y[1,3,3]  CON21     1.000000    
    y[1,4,1]  OBJ       6.569446      CON7      1.191010    
    y[1,4,1]  CON22     1.000000    
    y[1,4,2]  OBJ       7.857951      CON8      0.704414    
    y[1,4,2]  CON23     1.000000    
    y[1,4,3]  OBJ       6.748792      CON9      0.739303    
    y[1,4,3]  CON24     1.000000    
    y[2,1,1]  OBJ       6.704524      CON10     1.446837    
    y[2,1,1]  CON13     1.000000    
    y[2,1,2]  OBJ       7.784021      CON11     0.596001    
    y[2,1,2]  CON14     1.000000    
    y[2,1,3]  OBJ       6.141680      CON12     0.636999    
    y[2,1,3]  CON15     1.000000    
    y[2,2,1]  OBJ       6.165454      CON10     1.266289    
    y[2,2,1]  CON16     1.000000    
    y[2,2,2]  OBJ       9.703669      CON11     0.939959    
    y[2,2,2]  CON17     1.000000    
    y[2,2,3]  OBJ       5.423075      CON12     1.189280    
    y[2,2,3]  CON18     1.000000    
    y[2,3,1]  OBJ       7.618313      CON10     1.095486    
    y[2,3,1]  CON19     1.000000    
    y[2,3,2]  OBJ       9.320810      CON11     0.882047    
    y[2,3,2]  CON20     1.000000    
    y[2,3,3]  OBJ       9.761492      CON12     0.700650    
    y[2,3,3]  CON21     1.000000    
    y[2,4,1]  OBJ       9.281832      CON10     1.191010    
    y[2,4,1]  CON22     1.000000    
    y[2,4,2]  OBJ       6.456562      CON11     0.704414    
    y[2,4,2]  CON23     1.000000    
    y[2,4,3]  OBJ       7.684796      CON12     0.739303    
    y[2,4,3]  CON24     1.000000    
    z[1,1]    OBJ       904.843945    CON13     1.000000    
    z[1,2]    OBJ       594.427593    CON14     1.000000    
    z[1,3]    OBJ       645.743642    CON15     1.000000    
    z[2,1]    OBJ       801.170499    CON16     1.000000    
    z[2,2]    OBJ       827.767647    CON17     1.000000    
    z[2,3]    OBJ       558.384740    CON18     1.000000    
    z[3,1]    OBJ       672.828863    CON19     1.000000    
    z[3,2]    OBJ       505.449489    CON20     1.000000    
    z[3,3]    OBJ       981.998637    CON21     1.000000    
    z[4,1]    OBJ       976.149742    CON22     1.000000    
    z[4,2]    OBJ       538.132981    CON23     1.000000    
    z[4,3]    OBJ       601.981928    CON24     1.000000    
    MARKER    'MARKER'                 'INTEND'
RHS
    RHS       CON1      -0.000000     CON2      -0.000000   
    RHS       CON3      -0.000000     CON4      -0.000000   
    RHS       CON5      -0.000000     CON6      -0.000000   
    RHS       CON7      -0.000000     CON8      -0.000000   
    RHS       CON9      -0.000000     CON10     -0.000000   
    RHS       CON11     -0.000000     CON12     -0.000000   
    RHS       CON13     1.000000      CON14     1.000000    
    RHS       CON15     1.000000      CON16     1.000000    
    RHS       CON17     1.000000      CON18     1.000000    
    RHS       CON19     1.000000      CON20     1.000000    
    RHS       CON21     1.000000      CON22     1.000000    
    RHS       CON23     1.000000      CON24     1.000000    
BOUNDS
 BV BOUND     u[1,1]  
 BV BOUND     u[1,2]  
 BV BOUND     u[1,3]  
 BV BOUND     u[2,1]  
 BV BOUND     u[2,2]  
 BV BOUND     u[2,3]  
 BV BOUND     y[1,1,1]
 BV BOUND     y[1,1,2]
 BV BOUND     y[1,1,3]
 BV BOUND     y[1,2,1]
 BV BOUND     y[1,2,2]
 BV BOUND     y[1,2,3]
 BV BOUND     y[1,3,1]
 BV BOUND     y[1,3,2]
 BV BOUND     y[1,3,3]
 BV BOUND     y[1,4,1]
 BV BOUND     y[1,4,2]
 BV BOUND     y[1,4,3]
 BV BOUND     y[2,1,1]
 BV BOUND     y[2,1,2]
 BV BOUND     y[2,1,3]
 BV BOUND     y[2,2,1]
 BV BOUND     y[2,2,2]
 BV BOUND     y[2,2,3]
 BV BOUND     y[2,3,1]
 BV BOUND     y[2,3,2]
 BV BOUND     y[2,3,3]
 BV BOUND     y[2,4,1]
 BV BOUND     y[2,4,2]
 BV BOUND     y[2,4,3]
 BV BOUND     z[1,1]  
 BV BOUND     z[1,2]  
 BV BOUND     z[1,3]  
 BV BOUND     z[2,1]  
 BV BOUND     z[2,2]  
 BV BOUND     z[2,3]  
 BV BOUND     z[3,1]  
 BV BOUND     z[3,2]  
 BV BOUND     z[3,3]  
 BV BOUND     z[4,1]  
 BV BOUND     z[4,2]  
 BV BOUND     z[4,3]  
ENDATA
